35
1 0 42
2 0 28
2 1 8
3 0 50
3 1 21
3 2 39
4 0 10
4 1 33
4 2 44
4 3 5
5 0 25
5 1 13
5 2 13
5 3 51
5 4 1
6 0 49
6 1 20
6 2 8
6 3 5
6 4 39
6 5 27
7 0 11
7 1 10
7 2 26
7 3 29
7 4 23
7 5 27
7 6 29
8 0 9
8 1 52
8 2 50
8 3 28
8 4 31
8 5 40
8 6 1
8 7 23
9 0 12
9 1 27
9 2 19
9 3 3
9 4 15
9 5 12
9 6 45
9 7 29
9 8 49
10 0 37
10 1 22
10 2 15
10 3 47
10 4 34
10 5 42
10 6 39
10 7 19
10 8 7
10 9 10
11 0 41
11 1 31
11 2 44
11 3 28
11 4 35
11 5 47
11 6 41
11 7 34
11 8 40
11 9 16
11 10 9
12 0 28
12 1 24
12 2 28
12 3 30
12 4 30
12 5 9
12 6 12
12 7 50
12 8 36
12 9 11
12 10 45
12 11 39
13 0 12
13 1 44
13 2 34
13 3 11
13 4 23
13 5 1
13 6 38
13 7 51
13 8 44
13 9 22
13 10 30
13 11 8
13 12 35
14 0 48
14 1 42
14 2 29
14 3 13
14 4 25
14 5 19
14 6 3
14 7 5
14 8 13
14 9 44
14 10 50
14 11 51
14 12 15
14 13 27
15 0 47
15 1 19
15 2 1
15 3 32
15 4 37
15 5 37
15 6 39
15 7 16
15 8 19
15 9 42
15 10 29
15 11 39
15 12 35
15 13 7
15 14 10
16 0 23
16 1 33
16 2 37
16 3 19
16 4 11
16 5 23
16 6 5
16 7 6
16 8 46
16 9 27
16 10 18
16 11 8
16 12 26
16 13 14
16 14 16
16 15 38
17 0 22
17 1 15
17 2 27
17 3 49
17 4 44
17 5 7
17 6 12
17 7 44
17 8 28
17 9 4
17 10 43
17 11 34
17 12 41
17 13 19
17 14 24
17 15 7
17 16 47
18 0 44
18 1 27
18 2 27
18 3 42
18 4 9
18 5 24
18 6 46
18 7 17
18 8 37
18 9 49
18 10 50
18 11 31
18 12 52
18 13 34
18 14 14
18 15 17
18 16 15
18 17 37
19 0 29
19 1 5
19 2 39
19 3 48
19 4 43
19 5 46
19 6 4
19 7 19
19 8 12
19 9 13
19 10 35
19 11 29
19 12 38
19 13 11
19 14 44
19 15 44
19 16 26
19 17 32
19 18 14
20 0 16
20 1 7
20 2 24
20 3 12
20 4 20
20 5 12
20 6 30
20 7 41
20 8 12
20 9 13
20 10 24
20 11 13
20 12 14
20 13 9
20 14 25
20 15 38
20 16 28
20 17 35
20 18 24
20 19 4
21 0 48
21 1 52
21 2 19
21 3 5
21 4 6
21 5 15
21 6 45
21 7 30
21 8 52
21 9 22
21 10 32
21 11 23
21 12 4
21 13 26
21 14 52
21 15 13
21 16 35
21 17 27
21 18 7
21 19 37
21 20 11
22 0 51
22 1 43
22 2 52
22 3 52
22 4 10
22 5 30
22 6 3
22 7 9
22 8 43
22 9 42
22 10 5
22 11 27
22 12 48
22 13 1
22 14 7
22 15 34
22 16 10
22 17 25
22 18 4
22 19 40
22 20 31
22 21 34
23 0 38
23 1 26
23 2 15
23 3 22
23 4 49
23 5 11
23 6 36
23 7 1
23 8 32
23 9 23
23 10 50
23 11 45
23 12 6
23 13 3
23 14 21
23 15 8
23 16 36
23 17 3
23 18 26
23 19 30
23 20 38
23 21 19
23 22 17
24 0 22
24 1 37
24 2 18
24 3 7
24 4 27
24 5 42
24 6 4
24 7 42
24 8 5
24 9 46
24 10 15
24 11 38
24 12 42
24 13 34
24 14 28
24 15 7
24 16 34
24 17 13
24 18 13
24 19 10
24 20 13
24 21 10
24 22 34
24 23 14
25 0 49
25 1 51
25 2 20
25 3 51
25 4 21
25 5 21
25 6 38
25 7 15
25 8 1
25 9 17
25 10 34
25 11 23
25 12 6
25 13 43
25 14 46
25 15 37
25 16 38
25 17 32
25 18 52
25 19 11
25 20 28
25 21 13
25 22 4
25 23 8
25 24 5
26 0 38
26 1 15
26 2 21
26 3 38
26 4 9
26 5 46
26 6 5
26 7 22
26 8 43
26 9 3
26 10 46
26 11 34
26 12 37
26 13 37
26 14 46
26 15 7
26 16 24
26 17 13
26 18 19
26 19 41
26 20 12
26 21 45
26 22 50
26 23 24
26 24 44
26 25 44
27 0 34
27 1 6
27 2 17
27 3 52
27 4 10
27 5 38
27 6 35
27 7 9
27 8 21
27 9 43
27 10 29
27 11 23
27 12 24
27 13 32
27 14 1
27 15 23
27 16 23
27 17 9
27 18 34
27 19 49
27 20 24
27 21 45
27 22 39
27 23 39
27 24 19
27 25 14
27 26 17
28 0 11
28 1 29
28 2 5
28 3 4
28 4 17
28 5 35
28 6 52
28 7 31
28 8 47
28 9 3
28 10 3
28 11 32
28 12 22
28 13 18
28 14 36
28 15 41
28 16 26
28 17 23
28 18 46
28 19 29
28 20 11
28 21 41
28 22 8
28 23 49
28 24 25
28 25 48
28 26 44
28 27 19
29 0 23
29 1 16
29 2 16
29 3 49
29 4 25
29 5 10
29 6 12
29 7 30
29 8 9
29 9 51
29 10 13
29 11 5
29 12 38
29 13 17
29 14 26
29 15 7
29 16 5
29 17 50
29 18 43
29 19 22
29 20 22
29 21 43
29 22 34
29 23 42
29 24 4
29 25 12
29 26 42
29 27 12
29 28 27
30 0 1
30 1 51
30 2 10
30 3 9
30 4 45
30 5 21
30 6 35
30 7 16
30 8 22
30 9 46
30 10 36
30 11 3
30 12 30
30 13 22
30 14 24
30 15 19
30 16 26
30 17 8
30 18 13
30 19 38
30 20 46
30 21 49
30 22 23
30 23 29
30 24 28
30 25 14
30 26 48
30 27 30
30 28 30
30 29 11
31 0 25
31 1 10
31 2 33
31 3 13
31 4 9
31 5 3
31 6 39
31 7 31
31 8 14
31 9 10
31 10 51
31 11 19
31 12 9
31 13 19
31 14 5
31 15 19
31 16 14
31 17 32
31 18 21
31 19 30
31 20 37
31 21 49
31 22 49
31 23 32
31 24 30
31 25 1
31 26 39
31 27 38
31 28 3
31 29 47
31 30 17
32 0 7
32 1 9
32 2 17
32 3 2
32 4 25
32 5 33
32 6 12
32 7 48
32 8 14
32 9 40
32 10 16
32 11 8
32 12 3
32 13 21
32 14 52
32 15 2
32 16 47
32 17 11
32 18 42
32 19 17
32 20 30
32 21 7
32 22 20
32 23 20
32 24 10
32 25 31
32 26 26
32 27 16
32 28 24
32 29 33
32 30 33
32 31 2
33 0 35
33 1 31
33 2 13
33 3 9
33 4 9
33 5 22
33 6 37
33 7 52
33 8 47
33 9 46
33 10 15
33 11 46
33 12 7
33 13 34
33 14 7
33 15 3
33 16 34
33 17 28
33 18 38
33 19 23
33 20 1
33 21 26
33 22 21
33 23 12
33 24 28
33 25 25
33 26 51
33 27 49
33 28 7
33 29 34
33 30 26
33 31 30
33 32 9
34 0 11
34 1 32
34 2 52
34 3 12
34 4 19
34 5 7
34 6 25
34 7 47
34 8 15
34 9 50
34 10 12
34 11 23
34 12 25
34 13 2
34 14 14
34 15 45
34 16 8
34 17 15
34 18 3
34 19 29
34 20 13
34 21 43
34 22 26
34 23 40
34 24 43
34 25 31
34 26 29
34 27 21
34 28 51
34 29 11
34 30 20
34 31 51
34 32 40
34 33 3
